562 5
10 10 10 10 10 

0 0 0 0 0 0 3 2 54 66 
0 0 0 0 0 0 1 3 
3 1 1 1 1 1 2 8 4 
7 2 1 2 2 3 1 5 
4 1 5 1 2 2 1 6 
5 2 2 3 2 2 1 7 
6 2 3 2 2 2 2 12 9 
6 3 3 5 5 2 2 12 9 
2 2 1 4 3 4 1 10 
5 3 3 4 1 1 1 11 
7 1 3 3 2 2 1 13 
2 5 4 1 2 3 1 13 
9 5 2 2 2 3 1 14 
10 1 2 2 1 4 1 15 
8 2 3 3 1 4 2 17 16 
7 2 3 1 1 4 2 22 18 
10 3 4 4 2 1 1 18 
6 2 2 2 3 1 1 19 
5 3 2 3 3 2 1 20 
3 1 1 1 2 2 3 27 26 21 
8 4 2 4 1 4 2 29 23 
6 4 1 2 3 3 2 29 24 
7 4 3 2 4 3 1 24 
5 3 2 3 1 2 1 25 
6 2 3 2 3 5 2 30 28 
10 3 1 2 2 2 2 36 28 
7 2 2 2 3 2 1 29 
5 1 1 4 4 2 1 31 
10 1 3 1 2 2 1 31 
6 3 1 3 1 1 2 36 33 
5 3 4 2 2 3 1 32 
9 1 1 3 3 1 1 33 
1 4 5 6 2 4 1 34 
1 3 5 1 1 3 2 37 35 
3 2 2 3 2 2 2 42 38 
1 5 2 4 3 3 2 39 37 
3 4 1 4 3 2 2 42 40 
6 2 3 4 2 3 1 39 
9 2 3 1 6 1 1 40 
8 2 1 1 6 2 1 41 
6 1 2 2 2 3 2 47 43 
8 3 1 3 3 6 2 47 43 
5 3 2 1 5 1 1 44 
4 2 3 3 3 3 1 45 
7 2 2 5 1 2 2 46 554 
1 2 4 2 1 3 1 48 
2 1 2 3 4 5 1 48 
10 5 4 1 1 1 1 49 
2 4 4 2 2 2 2 52 50 
8 1 3 2 7 2 1 51 
6 2 4 2 2 2 1 53 
8 3 3 1 3 2 1 53 
0 0 0 0 0 0 1 562 
0 0 0 0 0 0 3 55 59 60 
9 1 0 0 0 0 2 64 56 
2 3 0 0 0 0 1 57 
7 3 0 0 0 0 1 58 
4 2 0 0 0 0 1 61 
4 3 0 0 0 0 1 61 
8 2 0 0 0 0 2 64 63 
10 1 0 0 0 0 1 62 
8 3 0 0 0 0 2 63 154 
9 3 0 0 0 0 1 65 
8 4 0 0 0 0 1 65 
0 0 0 0 0 0 5 118 160 172 214 256 
0 0 0 0 0 0 1 67 
6 1 1 1 1 1 1 68 
1 2 1 2 1 2 2 71 69 
7 3 1 4 4 1 1 70 
6 4 2 2 1 3 1 72 
9 1 5 4 1 3 1 72 
2 2 4 5 5 2 2 76 73 
8 2 5 2 2 4 1 74 
5 2 2 6 2 2 1 75 
4 5 3 1 2 4 1 77 
2 1 2 2 4 1 1 77 
5 3 2 1 8 2 1 78 
8 3 2 3 2 4 1 79 
3 1 2 1 2 2 2 81 80 
2 3 2 2 4 4 2 85 82 
9 4 2 4 1 2 1 82 
8 2 3 3 1 4 1 83 
8 4 1 3 3 2 1 84 
2 3 2 1 1 1 3 90 88 86 
4 1 3 1 3 4 3 90 88 86 
6 3 2 3 2 3 2 94 87 
1 3 1 3 4 4 1 89 
5 2 6 2 2 3 3 94 93 92 
2 6 1 1 2 2 1 91 
8 2 3 2 3 3 1 91 
6 3 1 2 7 2 2 93 92 
4 3 4 2 2 4 2 97 96 
2 1 5 3 1 2 1 95 
2 2 3 3 4 2 1 95 
4 5 2 1 3 1 1 96 
9 1 3 1 2 4 1 98 
8 2 3 2 1 1 1 98 
5 3 1 2 2 3 1 99 
4 2 3 4 6 1 2 101 100 
10 1 1 2 1 6 2 105 102 
9 1 2 1 1 4 2 105 104 
2 1 4 4 2 3 1 103 
1 2 1 3 2 2 1 104 
6 3 3 3 4 2 1 106 
5 1 4 3 2 2 1 106 
6 3 3 4 3 3 2 111 107 
8 3 2 2 1 3 1 108 
5 3 3 2 2 2 2 109 277 
7 1 4 2 1 2 1 110 
8 4 3 3 4 1 1 112 
1 5 3 3 1 1 1 112 
8 2 1 3 4 3 1 113 
2 2 1 3 1 1 2 116 114 
7 3 1 2 3 2 1 115 
2 2 4 1 1 3 1 117 
4 3 2 5 3 2 1 117 
0 0 0 0 0 0 1 562 
0 0 0 0 0 0 3 119 127 134 
7 0 1 1 1 1 1 120 
9 0 2 4 2 2 1 121 
5 0 3 2 4 3 1 122 
8 0 2 2 4 4 1 123 
4 0 2 1 3 1 2 133 124 
2 0 1 3 1 1 1 125 
4 0 3 1 3 3 1 126 
4 0 3 3 3 4 1 128 
6 0 4 2 7 4 1 128 
8 0 2 3 2 6 1 129 
4 0 2 2 5 1 1 130 
1 0 4 1 3 1 1 131 
10 0 2 3 1 2 2 149 132 
7 0 3 2 1 2 2 158 135 
8 0 1 2 3 1 2 158 135 
3 0 3 1 2 4 3 149 148 136 
3 0 1 4 2 2 2 148 136 
8 0 6 3 2 2 2 157 137 
6 0 5 2 5 1 1 138 
9 0 1 4 3 4 1 139 
10 0 2 1 3 2 1 140 
1 0 2 2 3 1 3 154 141 487 
3 0 2 3 5 1 3 156 155 142 
6 0 1 3 1 2 1 143 
5 0 2 5 1 2 1 144 
7 0 2 2 1 4 1 145 
2 0 3 1 3 3 1 146 
3 0 4 1 3 3 1 147 
4 0 3 6 2 4 1 150 
10 0 2 2 2 1 1 150 
7 0 4 4 2 4 2 154 152 
6 0 2 2 3 1 1 151 
8 0 1 3 1 2 1 152 
6 0 2 2 3 4 1 153 
3 0 2 4 1 3 1 159 
3 0 1 3 1 3 1 159 
9 0 4 3 2 3 1 159 
1 0 4 2 3 2 1 159 
5 0 2 4 2 4 1 159 
4 0 4 1 1 2 1 159 
0 0 0 0 0 0 1 562 
0 0 0 0 0 0 1 161 
7 1 0 0 0 0 2 163 162 
2 4 0 0 0 0 2 166 164 
8 2 0 0 0 0 2 166 165 
2 3 0 0 0 0 1 165 
4 1 0 0 0 0 1 167 
6 2 0 0 0 0 1 167 
2 4 0 0 0 0 2 170 168 
3 3 0 0 0 0 1 169 
6 2 0 0 0 0 1 171 
1 3 0 0 0 0 1 171 
0 0 0 0 0 0 5 298 330 362 374 406 
0 0 0 0 0 0 3 173 186 199 
2 1 1 1 0 1 1 174 
3 1 2 2 0 3 1 175 
7 5 3 1 0 3 1 176 
3 1 4 2 0 4 1 177 
9 2 2 2 0 5 2 194 178 
8 3 3 3 0 2 1 179 
2 2 2 3 0 1 1 180 
4 3 2 5 0 5 1 181 
5 1 2 2 0 4 2 212 182 
1 4 1 1 0 4 1 183 
2 1 2 4 0 1 1 184 
10 1 3 2 0 3 1 185 
5 2 4 3 0 1 2 211 187 
7 4 1 5 0 4 1 187 
8 1 1 2 0 1 3 210 205 188 
3 2 2 1 0 4 1 189 
6 3 4 3 0 2 1 190 
4 2 1 4 0 3 1 191 
2 3 1 2 0 4 1 192 
8 4 3 2 0 1 2 209 193 
4 4 2 2 0 1 3 208 207 195 
1 2 3 2 0 1 3 208 207 195 
3 4 2 2 0 2 1 196 
1 3 3 3 0 4 1 197 
6 3 3 2 0 3 1 198 
9 2 4 1 0 2 1 200 
3 4 1 3 0 2 1 200 
1 3 2 3 0 1 1 201 
9 2 3 2 0 1 1 202 
6 3 3 1 0 4 1 203 
7 2 3 5 0 4 1 204 
3 5 1 4 0 1 1 206 
6 1 3 2 0 4 1 206 
2 2 3 2 0 3 1 213 
8 4 4 2 0 1 1 213 
5 3 6 4 0 2 1 213 
6 1 1 1 0 3 1 213 
7 3 3 5 0 2 1 213 
9 2 4 2 0 1 1 213 
2 1 2 2 0 2 1 213 
0 0 0 0 0 0 1 562 
0 0 0 0 0 0 3 215 234 254 
1 0 1 1 1 1 1 216 
1 0 1 2 4 2 1 217 
9 0 2 3 1 3 1 218 
7 0 2 5 7 1 1 219 
3 0 1 5 1 2 2 241 220 
10 0 3 1 3 1 1 221 
5 0 2 1 3 4 1 222 
8 0 5 2 1 2 1 223 
1 0 3 3 2 3 2 253 224 
2 0 3 2 3 4 1 225 
7 0 3 1 2 2 1 226 
9 0 3 2 2 1 1 227 
2 0 2 3 3 1 2 252 228 
8 0 4 2 1 3 3 251 250 229 
8 0 4 5 4 3 1 230 
5 0 2 1 3 3 1 231 
2 0 3 4 1 1 1 232 
6 0 1 4 1 1 1 233 
2 0 3 3 3 4 2 249 235 
2 0 2 3 3 4 2 249 235 
7 0 2 1 3 2 3 248 247 236 
4 0 4 3 2 3 1 237 
10 0 1 3 3 1 1 238 
9 0 2 1 3 3 1 239 
9 0 3 3 3 3 1 240 
1 0 3 4 1 5 1 242 
6 0 4 2 3 3 1 242 
1 0 1 4 4 1 1 243 
3 0 1 4 2 3 1 244 
7 0 4 3 5 2 1 245 
9 0 2 4 1 2 1 246 
3 0 1 1 5 5 1 255 
2 0 3 1 2 3 1 255 
3 0 4 1 2 3 1 255 
5 0 4 1 1 3 1 255 
6 0 2 1 2 2 1 255 
3 0 5 2 3 4 1 255 
9 0 1 4 1 3 1 255 
2 0 1 2 2 2 1 255 
9 0 2 2 3 1 1 255 
0 0 0 0 0 0 1 562 
0 0 0 0 0 0 3 257 266 274 
4 0 1 1 1 1 1 258 
9 0 4 2 4 2 1 259 
8 0 1 3 1 3 1 260 
8 0 2 2 3 3 1 261 
4 0 2 1 2 1 2 271 262 
1 0 3 1 3 4 1 263 
3 0 2 4 2 2 1 264 
6 0 2 3 7 2 1 265 
6 0 2 4 2 2 1 267 
8 0 1 3 2 1 1 267 
6 0 3 3 1 1 1 268 
3 0 1 1 1 1 2 287 269 
3 0 3 1 3 4 1 270 
3 0 4 2 3 2 2 296 272 
6 0 5 6 1 5 2 296 272 
2 0 1 4 2 2 2 286 273 
8 0 4 3 2 3 2 295 275 
4 0 3 5 2 2 2 286 275 
9 0 2 1 2 2 1 276 
1 0 4 3 2 2 1 277 
7 0 2 2 3 4 1 278 
2 0 1 1 3 3 2 292 279 
4 0 3 1 3 3 3 294 293 280 
9 0 1 1 1 6 1 281 
9 0 3 2 4 2 1 282 
3 0 1 2 1 1 1 283 
8 0 2 5 2 1 1 284 
3 0 3 2 5 1 1 285 
3 0 2 3 3 2 1 288 
4 0 1 3 1 1 1 288 
2 0 3 4 2 1 2 292 290 
9 0 3 1 3 5 1 289 
9 0 3 2 4 3 1 290 
3 0 3 1 3 6 1 291 
7 0 3 2 2 2 1 297 
2 0 3 3 3 3 1 297 
5 0 1 3 3 4 1 297 
3 0 5 2 3 2 1 297 
2 0 4 5 3 3 1 297 
7 0 3 2 2 2 1 297 
0 0 0 0 0 0 1 562 
0 0 0 0 0 0 2 299 301 
6 0 1 1 1 0 1 300 
7 0 3 2 2 0 1 302 
10 0 3 3 3 0 1 302 
7 0 2 5 2 0 1 303 
8 0 3 1 3 0 1 304 
6 0 2 1 3 0 2 308 305 
3 0 1 2 2 0 1 306 
5 0 1 2 3 0 1 307 
3 0 3 5 3 0 3 311 310 309 
8 0 2 3 1 0 3 311 310 309 
3 0 2 2 1 0 2 313 312 
9 0 2 1 3 0 2 313 312 
1 0 1 2 2 0 2 313 312 
4 0 3 4 3 0 3 317 315 314 
10 0 3 6 4 0 3 317 315 314 
1 0 3 2 2 0 1 316 
6 0 4 3 5 0 1 316 
9 0 3 4 1 0 1 318 
5 0 1 1 3 0 1 318 
4 0 3 1 2 0 1 319 
10 0 3 3 2 0 1 320 
7 0 2 1 3 0 2 323 321 
6 0 2 5 1 0 1 322 
9 0 2 2 2 0 1 324 
1 0 4 2 8 0 1 324 
5 0 5 2 3 0 1 325 
6 0 2 1 3 0 1 326 
10 0 3 2 1 0 1 327 
10 0 2 4 1 0 1 328 
10 0 4 2 2 0 1 329 
0 0 0 0 0 0 1 562 
0 0 0 0 0 0 2 331 357 
5 1 0 0 1 1 1 332 
6 2 0 0 4 4 1 333 
9 1 0 0 1 3 1 334 
3 5 0 0 1 1 1 335 
5 3 0 0 3 4 2 349 336 
5 1 0 0 4 2 1 337 
10 2 0 0 2 3 1 338 
1 3 0 0 2 2 3 346 341 339 
3 2 0 0 2 2 2 343 340 
1 2 0 0 3 3 3 348 345 342 
6 1 0 0 2 3 2 348 347 
3 3 0 0 2 2 1 344 
1 3 0 0 4 2 1 344 
6 4 0 0 6 2 1 347 
2 2 0 0 1 1 1 347 
5 2 0 0 4 2 1 348 
5 5 0 0 2 3 1 350 
1 1 0 0 1 3 1 350 
7 3 0 0 3 3 1 350 
4 2 0 0 1 1 1 351 
10 5 0 0 1 2 2 360 352 
6 1 0 0 3 3 1 353 
9 1 0 0 3 2 1 354 
7 2 0 0 2 5 1 355 
3 5 0 0 5 3 1 356 
5 2 0 0 5 3 1 358 
4 4 0 0 1 3 1 358 
2 2 0 0 1 2 1 359 
4 2 0 0 2 4 1 361 
1 3 0 0 3 1 1 361 
0 0 0 0 0 0 1 562 
0 0 0 0 0 0 3 363 366 368 
2 0 1 0 0 0 1 364 
2 0 2 0 0 0 1 365 
5 0 4 0 0 0 2 370 367 
7 0 1 0 0 0 1 367 
3 0 1 0 0 0 1 369 
8 0 2 0 0 0 1 369 
9 0 3 0 0 0 1 371 
5 0 3 0 0 0 1 371 
5 0 3 0 0 0 1 372 
1 0 5 0 0 0 1 373 
0 0 0 0 0 0 5 438 460 482 494 516 
0 0 0 0 0 0 2 375 404 
4 0 0 1 1 1 1 376 
9 0 0 3 4 1 1 377 
10 0 0 2 3 1 1 378 
3 0 0 2 3 3 1 379 
8 0 0 3 4 2 2 403 380 
7 0 0 1 3 1 1 381 
10 0 0 3 1 2 2 402 382 
5 0 0 5 2 3 4 401 400 399 383 
10 0 0 5 3 2 2 392 384 
1 0 0 3 2 1 1 385 
4 0 0 1 3 2 1 386 
3 0 0 1 5 3 1 387 
2 0 0 1 1 1 2 398 388 
5 0 0 3 3 4 1 389 
2 0 0 3 5 3 1 390 
9 0 0 2 3 2 1 391 
1 0 0 4 4 4 1 393 
9 0 0 2 2 3 1 393 
5 0 0 2 2 3 1 394 
9 0 0 4 2 5 1 395 
8 0 0 2 1 1 1 396 
2 0 0 2 2 2 1 397 
9 0 0 3 2 4 1 405 
1 0 0 3 1 3 1 405 
10 0 0 3 3 4 1 405 
6 0 0 5 3 6 1 405 
1 0 0 2 2 1 1 405 
3 0 0 1 2 2 1 405 
2 0 0 1 2 1 1 405 
5 0 0 2 1 4 1 405 
0 0 0 0 0 0 1 562 
0 0 0 0 0 0 2 407 436 
4 1 0 1 1 0 1 408 
5 2 0 3 2 0 1 409 
10 4 0 4 3 0 1 410 
5 3 0 3 1 0 1 411 
3 3 0 4 1 0 2 435 412 
10 5 0 1 4 0 1 413 
7 1 0 2 6 0 2 434 414 
7 1 0 2 3 0 4 433 432 428 415 
8 3 0 1 4 0 2 423 416 
8 4 0 3 2 0 1 417 
5 1 0 6 1 0 1 418 
6 4 0 1 2 0 1 419 
8 3 0 3 3 0 2 431 420 
1 1 0 1 3 0 1 421 
6 2 0 1 1 0 1 422 
1 3 0 5 2 0 1 424 
5 2 0 1 3 0 1 424 
2 3 0 2 3 0 1 425 
9 2 0 3 2 0 1 426 
9 2 0 3 3 0 1 427 
4 2 0 4 2 0 1 429 
7 3 0 2 1 0 1 429 
6 2 0 1 3 0 1 430 
1 3 0 2 1 0 1 437 
8 2 0 2 3 0 1 437 
7 2 0 1 3 0 1 437 
3 2 0 4 5 0 1 437 
2 4 0 3 3 0 1 437 
4 2 0 3 2 0 1 437 
5 3 0 3 2 0 1 437 
0 0 0 0 0 0 1 562 
0 0 0 0 0 0 3 439 444 458 
6 1 0 0 0 1 1 440 
3 2 0 0 0 1 1 441 
8 3 0 0 0 1 1 442 
4 2 0 0 0 4 2 448 443 
1 3 0 0 0 2 2 454 445 
9 3 0 0 0 3 2 454 446 
10 3 0 0 0 3 1 446 
6 3 0 0 0 6 1 447 
7 1 0 0 0 2 2 457 449 
3 3 0 0 0 2 1 449 
9 3 0 0 0 2 1 450 
9 2 0 0 0 3 1 451 
9 1 0 0 0 1 1 452 
3 3 0 0 0 2 1 453 
3 2 0 0 0 3 1 455 
3 3 0 0 0 4 1 455 
3 3 0 0 0 1 1 456 
8 3 0 0 0 1 1 459 
2 2 0 0 0 6 1 459 
6 4 0 0 0 2 1 459 
0 0 0 0 0 0 1 562 
0 0 0 0 0 0 4 461 478 479 480 
1 0 0 1 1 0 2 477 462 
10 0 0 3 1 0 1 463 
6 0 0 3 2 0 1 464 
4 0 0 1 3 0 1 465 
10 0 0 2 4 0 2 476 466 
8 0 0 4 2 0 1 467 
10 0 0 3 6 0 1 468 
8 0 0 2 3 0 1 469 
8 0 0 2 1 0 1 470 
8 0 0 3 1 0 1 471 
5 0 0 1 3 0 1 472 
2 0 0 3 4 0 1 473 
9 0 0 4 2 0 1 474 
6 0 0 2 1 0 1 475 
3 0 0 1 3 0 1 481 
8 0 0 2 4 0 1 481 
4 0 0 5 4 0 1 481 
5 0 0 2 2 0 1 481 
4 0 0 4 1 0 1 481 
4 0 0 2 2 0 1 481 
0 0 0 0 0 0 1 562 
0 0 0 0 0 0 1 483 
6 1 0 0 0 0 2 486 484 
4 2 0 0 0 0 1 485 
6 1 0 0 0 0 2 489 487 
6 2 0 0 0 0 2 489 487 
4 4 0 0 0 0 1 488 
10 4 0 0 0 0 2 492 490 
6 2 0 0 0 0 2 492 490 
1 2 0 0 0 0 1 491 
10 4 0 0 0 0 1 493 
7 3 0 0 0 0 1 493 
0 0 0 0 0 0 2 538 550 
0 0 0 0 0 0 2 495 510 
4 0 0 0 1 1 2 502 496 
3 0 0 0 2 2 2 514 497 
4 0 0 0 3 3 1 498 
6 0 0 0 5 3 1 499 
1 0 0 0 3 3 1 500 
10 0 0 0 2 1 1 501 
10 0 0 0 2 4 2 513 503 
5 0 0 0 4 2 2 513 504 
10 0 0 0 2 4 1 504 
3 0 0 0 2 1 1 505 
3 0 0 0 2 4 2 512 506 
8 0 0 0 2 2 1 507 
7 0 0 0 3 2 1 508 
5 0 0 0 2 3 1 509 
4 0 0 0 2 1 1 511 
5 0 0 0 3 4 1 512 
2 0 0 0 1 3 1 515 
7 0 0 0 2 3 1 515 
3 0 0 0 5 2 1 515 
3 0 0 0 2 2 1 515 
0 0 0 0 0 0 1 562 
0 0 0 0 0 0 3 517 525 532 
5 1 0 0 0 1 2 536 518 
3 2 0 0 0 3 1 519 
8 3 0 0 0 1 1 520 
3 1 0 0 0 1 1 521 
3 2 0 0 0 2 1 522 
5 1 0 0 0 4 1 523 
1 3 0 0 0 3 2 535 524 
8 6 0 0 0 4 1 526 
3 5 0 0 0 1 3 535 534 528 
1 3 0 0 0 1 1 527 
3 1 0 0 0 4 2 534 528 
7 2 0 0 0 5 1 529 
3 1 0 0 0 1 1 530 
6 4 0 0 0 2 1 531 
2 2 0 0 0 1 1 533 
5 2 0 0 0 3 1 534 
2 2 0 0 0 2 1 537 
9 2 0 0 0 3 1 537 
4 2 0 0 0 3 1 537 
9 5 0 0 0 5 1 537 
0 0 0 0 0 0 1 562 
0 0 0 0 0 0 1 539 
4 0 0 1 0 0 1 540 
5 0 0 4 0 0 1 541 
2 0 0 4 0 0 1 542 
4 0 0 2 0 0 3 548 545 543 
9 0 0 3 0 0 1 544 
2 0 0 1 0 0 2 547 546 
5 0 0 2 0 0 2 547 546 
4 0 0 1 0 0 1 549 
7 0 0 5 0 0 1 549 
2 0 0 2 0 0 1 549 
0 0 0 0 0 0 1 562 
0 0 0 0 0 0 2 551 552 
7 0 0 0 1 0 2 559 553 
8 0 0 0 4 0 3 560 559 556 
1 0 0 0 2 0 1 554 
10 0 0 0 2 0 1 555 
3 0 0 0 2 0 1 556 
6 0 0 0 2 0 1 557 
7 0 0 0 2 0 1 558 
1 0 0 0 1 0 1 561 
8 0 0 0 3 0 1 561 
1 0 0 0 6 0 1 561 
0 0 0 0 0 0 1 562 
0 0 0 0 0 0 0 
